c ind 12 13 16 19 20 27 28 32 38 45 0
c ind 48 57 60 67 7 70 8 82 91 0
p cnf 96 299
-1 2 0
-1 39 0
-10 -11 0
-11 -12 13 0
-11 -13 12 0
-14 -15 17 0
-14 15 21 0
-15 -12 16 0
-15 -16 12 0
-17 -18 0
-18 -19 20 0
-18 -20 19 0
-2 -3 29 0
-2 3 37 0
-20 0
-21 -22 0
-22 -16 19 0
-22 -19 16 0
-23 -24 0
-24 -19 19 0
-25 -26 0
-26 -27 28 0
-26 -28 27 0
-29 -30 31 0
-29 30 33 0
-3 4 25 0
-30 -16 27 0
-30 -27 16 0
-31 -20 32 0
-31 -32 20 0
-33 -10 34 0
-33 10 36 0
-34 -15 31 0
-34 15 35 0
-35 -16 32 0
-35 -32 16 0
-36 -19 32 0
-36 -32 19 0
-37 -32 38 0
-37 -38 32 0
-39 -40 49 0
-39 40 96 0
-4 5 9 0
-40 -20 41 0
-40 -41 20 0
-41 -42 -20 0
-41 42 20 0
-42 -43 -46 0
-42 43 46 0
-43 -44 -16 0
-43 44 16 0
-44 -45 0
-46 -47 -16 0
-46 47 16 0
-47 -48 0
-49 -50 51 0
-49 50 73 0
-5 -6 0
-50 -20 43 0
-50 -43 20 0
-51 -52 61 0
-51 52 71 0
-52 -20 53 0
-52 -53 20 0
-53 -54 -20 0
-53 54 20 0
-54 -55 -58 0
-54 55 58 0
-55 -56 -16 0
-55 56 16 0
-56 -57 0
-58 -59 -16 0
-58 59 16 0
-59 -60 0
-6 -7 8 0
-6 -8 7 0
-61 -62 16 0
-61 62 20 0
-62 -20 63 0
-62 -63 20 0
-63 -64 -20 0
-63 64 20 0
-64 -65 -68 0
-64 65 68 0
-65 -66 -16 0
-65 66 16 0
-66 -67 0
-68 -69 -16 0
-68 69 16 0
-69 -70 0
-71 -72 16 0
-71 72 20 0
-72 -16 68 0
-72 -68 16 0
-73 -74 75 0
-73 74 61 0
-74 -16 55 0
-74 -55 16 0
-75 -52 61 0
-75 52 76 0
-76 -77 83 0
-76 77 95 0
-77 -20 78 0
-77 -78 20 0
-78 -79 -20 0
-78 79 20 0
-79 -46 -80 0
-79 46 80 0
-80 -81 -16 0
-80 81 16 0
-81 -82 0
-83 -84 85 0
-83 84 92 0
-84 -20 46 0
-84 -46 20 0
-85 -86 92 0
-85 86 71 0
-86 -20 87 0
-86 -87 20 0
-87 -88 -20 0
-87 88 20 0
-88 -58 -89 0
-88 58 89 0
-89 -90 -16 0
-89 90 16 0
-9 -10 14 0
-9 10 23 0
-90 -91 0
-92 -93 16 0
-92 93 94 0
-93 -20 68 0
-93 -68 20 0
-94 -62 16 0
-94 62 71 0
-95 -84 71 0
-95 84 92 0
-96 -50 71 0
-96 50 73 0
1 -2 -39 0
1 0
10 11 0
11 -12 -13 0
11 12 13 0
14 -15 -17 0
14 -17 -21 0
14 15 -21 0
15 -12 -16 0
15 12 16 0
16 0
17 18 0
18 -19 -20 0
18 19 20 0
2 -29 -37 0
2 -3 -29 0
2 3 -37 0
21 22 0
22 -19 -16 0
22 19 16 0
23 24 0
24 -19 -19 0
24 19 19 0
25 26 0
26 -27 -28 0
26 27 28 0
29 -30 -31 0
29 -31 -33 0
29 30 -33 0
3 -25 0
3 -4 0
30 -27 -16 0
30 27 16 0
31 -32 -20 0
31 32 20 0
33 -10 -34 0
33 -34 -36 0
33 10 -36 0
34 -15 -31 0
34 -31 -35 0
34 15 -35 0
35 -32 -16 0
35 32 16 0
36 -32 -19 0
36 32 19 0
37 -32 -38 0
37 32 38 0
39 -40 -49 0
39 -49 -96 0
39 40 -96 0
4 -5 0
4 -9 0
40 -41 -20 0
40 41 20 0
41 -20 42 0
41 -42 20 0
42 -43 46 0
42 -46 43 0
43 -16 44 0
43 -44 16 0
44 45 0
46 -16 47 0
46 -47 16 0
47 48 0
49 -50 -51 0
49 -51 -73 0
49 50 -73 0
5 6 0
50 -43 -20 0
50 43 20 0
51 -52 -61 0
51 -61 -71 0
51 52 -71 0
52 -53 -20 0
52 53 20 0
53 -20 54 0
53 -54 20 0
54 -55 58 0
54 -58 55 0
55 -16 56 0
55 -56 16 0
56 57 0
58 -16 59 0
58 -59 16 0
59 60 0
6 -7 -8 0
6 7 8 0
61 -16 -20 0
61 -62 -16 0
61 62 -20 0
62 -63 -20 0
62 63 20 0
63 -20 64 0
63 -64 20 0
64 -65 68 0
64 -68 65 0
65 -16 66 0
65 -66 16 0
66 67 0
68 -16 69 0
68 -69 16 0
69 70 0
71 -16 -20 0
71 -72 -16 0
71 72 -20 0
72 -68 -16 0
72 68 16 0
73 -74 -75 0
73 -75 -61 0
73 74 -61 0
74 -55 -16 0
74 55 16 0
75 -52 -61 0
75 -61 -76 0
75 52 -76 0
76 -77 -83 0
76 -83 -95 0
76 77 -95 0
77 -78 -20 0
77 78 20 0
78 -20 79 0
78 -79 20 0
79 -46 80 0
79 -80 46 0
80 -16 81 0
80 -81 16 0
81 82 0
83 -84 -85 0
83 -85 -92 0
83 84 -92 0
84 -46 -20 0
84 46 20 0
85 -86 -92 0
85 -92 -71 0
85 86 -71 0
86 -87 -20 0
86 87 20 0
87 -20 88 0
87 -88 20 0
88 -58 89 0
88 -89 58 0
89 -16 90 0
89 -90 16 0
9 -10 -14 0
9 -14 -23 0
9 10 -23 0
90 91 0
92 -16 -94 0
92 -93 -16 0
92 93 -94 0
93 -68 -20 0
93 68 20 0
94 -16 -71 0
94 -62 -16 0
94 62 -71 0
95 -71 -92 0
95 -84 -71 0
95 84 -92 0
96 -50 -71 0
96 -71 -73 0
96 50 -73 0
